Minimize
  x(1) + x(2) + x(3)
Subject To
 con1: - 0.01 x(5) + 0.01 x(8) <= 1
 con2: 0.0025 x(5) - 0.0025 x(4) + 0.0025 x(7) <= 1
 con3: 0.0025 x(4) + 0.0025 x(6) <= 1
 QCP_row_for_con4: 100 x(1) + 833.33252 x(4) + [ - x(1) * x(6) ] <= 83333.333
 QCP_row_for_con5: - 2500 x(5) + [ x(3) * x(5) - x(3) * x(8) ] <= -1.25e+06
 QCP_row_for_con6: 1250 x(5) - 1250 x(4) + [ x(2) * x(4) - x(2) * x(7) ] <= 0
Bounds
 100 <= x(1) <= 10000
 1000 <= x(2) <= 10000
 1000 <= x(3) <= 10000
 10 <= x(5) <= 1000
 10 <= x(8) <= 1000
 10 <= x(4) <= 1000
 10 <= x(7) <= 1000
 10 <= x(6) <= 1000
End
